100
15
5 5 5 10 5 15 10 5 5 5 5 5 5 10 5 15 10 5 5 5 5 5 5 10 5 15 10 5 5 5 5 5 5 10 5 15 10 5 5 5 5 5 5 10 5 15 10 5 5 5 5 5 5 10 5 15 10 5 5 5 5 5 5 10 5 15 10 5 5 5 5 5 5 10 5 15 10 5 5 5 5 5 5 10 5 15 10 5 5 5 5 5 5 10 5 15 10 5 5 5 5 5 5 10 5 15 10 5 5 5
3
20
7
6
8
9
3
20
7
6
8
9
4
3
20
7
6
8
9
3
20
7
6
8
9
7
8
9
7
4
5
3
20
7
6
8
9
3
20
7
6
8
9
4
3
20
7
6
8
9
3
20
7
6
8
9
7
8
9
7
4
5
8
9
7
4
5
7
8
9
7
4
5
8
9
7
4
57
8
9
7
4
5
8
9
7
4
57
8
9
7
4
5
8
9
7
4
5
6
8
2
20
7
6
8
9
3
20
7
6
8
9
4
3
20
7
6
8
9
3
20
7
6
8
9
7
8
9
7
4
5
3
20
7
6
8
9
3
20
7
6
8
9
4
3
20
7
6
8
9
3
20
7
6
8
9
7
8
9
7
4
5
8
9
7
4
5
7
8
9
7
4
5
8
9
7
4
57
8
9
7
4
5
8
9
7
4
57
8
9
7
4
5
8
9
7
4
5
6
8
2
20
7
6
8
9
3
20
7
6
8
9
4
3
20
7
6
8
9
3
20
7
6
8
9
7
8
9
7
4
5
3
20
7
6
8
9
3
20
7
6
8
9
4
3
20
7
6
8
9
3
20
7
6
8
9
7
8
9
7
4
5
8
9
7
4
5
7
8
9
7
4
5
8
9
7
4
57
8
9
7
4
5
8
9
7
4
57
8
9
7
4
5
8
9
7
4
5
6
8
2
20
7
6
8
9
3
20
7
6
8
9
4
3
20
7
6
8
9
3
20
7
6
8
9
7
8
9
7
4
5
3
20
7
6
8
9
3
20
7
6
8
9
4
3
20
7
6
8
9
3
20
7
6
8
9
7
8
9
7
4
5
8
9
7
4
5
7
8
9
7
4
5
8
9
7
4
57
8
9
7
4
5
8
9
7
4
57
8
9
7
4
5
8
9
7
4
5
6
8
2
20
7
6
8
9
3
20
7
6
8
9
4
3
20
7
6
8
9
3
20
7
6
8
9
7
8
9
7
4
5
3
20
7
6
8
9
3
20
7
6
8
9
4
3
20
7
6
8
9
3
20
7
6
8
9
7
8
9
7
4
5
8
9
7
4
5
7
8
9
7
4
5
8
9
7
4
57
8
9
7
4
5
8
9
7
4
57
8
9
7
4
5
8
9
7
4
5
6
8
2
20
7
6
8
9
3
20
7
6
8
9
4
3
20
7
6
8
9
3
20
7
6
8
9
7
8
9
7
4
5
3
20
7
6
8
9
3
20
7
6
8
9
4
3
20
7
6
8
9
3
20
7
6
8
9
7
8
9
7
4
5
8
9
7
4
5
7
8
9
7
4
5
8
9
7
4
57
8
9
7
4
5
8
9
7
4
57
8
9
7
4
5
8
9
7
4
5
6
8
2
20
7
6
8
9
3
20
7
6
8
9
4
3
20
7
6
8
9
3
20
7
6
8
9
7
8
9
7
4
5
3
20
7
6
8
9
3
20
7
6
8
9
4
3
20
7
6
8
9
3
20
7
6
8
9
7
8
9
7
4
5
8
9
7
4
5
7
8
9
7
4
5
8
9
7
4
57
8
9
7
4
5
8
9
7
4
57
8
9
7
4
5
8
9
7
4
5
6
8
2
20
7
6
8
9
3
20
7
6
8
9
4
3
20
7
6
8
9
3
20
7
6
8
9
7
8
9
7
4
5
3
20
7
6
8
9
3
20
7
6
8
9
4
3
20
7
6
8
9
3
20
7
6
8
9
7
8
9
7
4
5
8
9
7
4
5
7
8
9
7
4
5
8
9
7
4
57
8
9
7
4
5
8
9
7
4
57
8
9
7
4
5
8
9
7
4
5
6
8
2
20
7
6
8
9
3
20
7
6
8
9
4
3
20
7
6
8
9
3
20
7
6
8
9
7
8
9
7
4
5
3
20
7
6
8
9
3
20
7
6
8
9
4
3
20
7
6
8
9
3
20
7
6
8
9
7
8
9
7
4
5
8
9
7
4
5
7
8
9
7
4
5
8
9
7
4
57
8
9
7
4
5
8
9
7
4
57
8
9
7
4
5
8
9
7
4
5
6
8
2
20
7
6
8
9
3
20
7
6
8
9
4
3
20
7
6
8
9
3
20
7
6
8
9
7
8
9
7
4
5
3
20
7
6
8
9
3
20
7
6
8
9
4
3
20
7
6
8
9
3
20
7
6
8
9
7
8
9
7
4
5
8
9
7
4
5
7
8
9
7
4
5
8
9
7
4
57
8
9
7
4
5
8
9
7
4
57
8
9
7
4
5
8
9
7
4
5
6
8
2
20
7
6
8
9
3
20
7
6
8
9
4
3
20
7
6
8
9
3
20
7
6
8
9
7
8
9
7
4
5
3
20
7
6
8
9
3
20
7
6
8
9
4
3
20
7
6
8
9
3
20
7
6
8
9
7
8
9
7
4
5
8
9
7
4
5
7
8
9
7
4
5
8
9
7
4
57
8
9
7
4
5
8
9
7
4
57
8
9
7
4
5
8
9
7
4
5
6
8
2
20
7
6
8
9
3
20
7
6
8
9
4
3
20
7
6
8
9
3
20
7
6
8
9
7
8
9
7
4
5
3
20
7
6
8
9
3
20
7
6
8
9
4
3
20
7
6
8
9
3
20
7
6
8
9
7
8
9
7
4
5
8
9
7
4
5
7
8
9
7
4
5
8
9
7
4
57
8
9
7
4
5
8
9
7
4
57
8
9
7
4
5
8
9
7
4
5
6
8
2
20
7
6
8
9
3
20
7
6
8
9
4
3
20
7
6
8
9
3
20
7
6
8
9
7
8
9
7
4
5
3
20
7
6
8
9
3
20
7
6
8
9
4
3
20
7
6
8
9
3
20
7
6
8
9
7
8
9
7
4
5
8
9
7
4
5
7
8
9
7
4
5
8
9
7
4
57
8
9
7
4
5
8
9
7
4
57
8
9
7
4
5
8
9
7
4
5
6
8
2
20
7
6
8
9
3
20
7
6
8
9
4
3
20
7
6
8
9
3
20
7
6
8
9
7
8
9
7
4
5
3
20
7
6
8
9
3
20
7
6
8
9
4
3
20
7
6
8
9
3
20
7
6
8
9
7
8
9
7
4
5
8
9
7
4
5
7
8
9
7
4
5
8
9
7
4
57
8
9
7
4
5
8
9
7
4
57
8
9
7
4
5
8
9
7
4
5
6
8
2
20
7
6
8
9
3
20
7
6
8
9
4
3
20
7
6
8
9
3
20
7
6
8
9
7
8
9
7
4
5
3
20
7
6
8
9
3
20
7
6
8
9
4
3
20
7
6
8
9
3
20
7
6
8
9
7
8
9
7
4
5
8
9
7
4
5
7
8
9
7
4
5
8
9
7
4
57
8
9
7
4
5
8
9
7
4
57
8
9
7
4
5
8
9
7
4
5
6
8
2
20
7
6
8
9
3
20
7
6
8
9
4
3
20
7
6
8
9
3
20
7
6
8
9
7
8
9
7
4
5
3
20
7
6
8
9
3
20
7
6
8
9
4
3
20
7
6
8
9
3
20
7
6
8
9
7
8
9
7
4
5
8
9
7
4
5
7
8
9
7
4
5
8
9
7
4
57
8
9
7
4
5
8
9
7
4
57
8
9
7
4
5
8
9
7
4
5
6
8
2
20
7
6
8
9
3
20
7
6
8
9
4
3
20
7
6
8
9
3
20
7
6
8
9
7
8
9
7
4
5
3
20
7
6
8
9
3
20
7
6
8
9
4
3
20
7
6
8
9
3
20
7
6
8
9
7
8
9
7
4
5
8
9
7
4
5
7
8
9
7
4
5
8
9
7
4
57
8
9
7
4
5
8
9
7
4
57
8
9
7
4
5
8
9
7
4
5
6
8
2
20
7
6
8
9
3
20
7
6
8
9
4
3
20
7
6
8
9
3
20
7
6
8
9
7
8
9
7
4
5
3
20
7
6
8
9
3
20
7
6
8
9
4
3
20
7
6
8
9
3
20
7
6
8
9
7
8
9
7
4
5
8
9
7
4
5
7
8
9
7
4
5
8
9
7
4
57
8
9
7
4
5
8
9
7
4
57
8
9
7
4
5
8
9
7
4
5
6
8
2
20
7
6
8
9
3
20
7
6
8
9
4
3
20
7
6
8
9
3
20
7
6
8
9
7
8
9
7
4
5
3
20
7
6
8
9
3
20
7
6
8
9
4
3
20
7
6
8
9
3
20
7
6
8
9
7
8
9
7
4
5
8
9
7
4
5
7
8
9
7
4
5
8
9
7
4
57
8
9
7
4
5
8
9
7
4
57
8
9
7
4
5
8
9
7
4
5
6
8
2
20
7
6
8
9
3
20
7
6
8
9
4
3
20
7
6
8
9
3
20
7
6
8
9
7
8
9
7
4
5
3
20
7
6
8
9
3
20
7
6
8
9
4
3
20
7
6
8
9
3
20
7
6
8
9
7
8
9
7
4
5
8
9
7
4
5
7
8
9
7
4
5
8
9
7
4
57
8
9
7
4
5
8
9
7
4
57
8
9
7
4
5
8
9
7
4
5
6
8
2
20
7
6
8
9
3
20
7
6
8
9
4
3
20
7
6
8
9
3
20
7
6
8
9
7
8
9
7
4
5
3
20
7
6
8
9
3
20
7
6
8
9
4
3
20
7
6
8
9
3
20
7
6
8
9
7
8
9
7
4
5
8
9
7
4
5
7
8
9
7
4
5
8
9
7
4
57
8
9
7
4
5
8
9
7
4
57
8
9
7
4
5
8
9
7
4
5
6
8
2
20
7
6
8
9
3
20
7
6
8
9
4
3
20
7
6
8
9
3
20
7
6
8
9
7
8
9
7
4
5
3
20
7
6
8
9
3
20
7
6
8
9
4
3
20
7
6
8
9
3
20
7
6
8
9
7
8
9
7
4
5
8
9
7
4
5
7
8
9
7
4
5
8
9
7
4
57
8
9
7
4
5
8
9
7
4
57
8
9
7
4
5
8
9
7
4
5
6
8
2
20
7
6
8
9
3
20
7
6
8
9
4
3
20
7
6
8
9
3
20
7
6
8
9
7
8
9
7
4
5
3
20
7
6
8
9
3
20
7
6
8
9
4
3
20
7
6
8
9
3
20
7
6
8
9
7
8
9
7
4
5
8
9
7
4
5
7
8
9
7
4
5
8
9
7
4
57
8
9
7
4
5
8
9
7
4
57
8
9
7
4
5
8
9
7
4
5
6
8
2
20
7
6
8
9
3
20
7
6
8
9
4
3
20
7
6
8
9
3
20
7
6
8
9
7
8
9
7
4
5
3
20
7
6
8
9
3
20
7
6
8
9
4
3
20
7
6
8
9
3
20
7
6
8
9
7
8
9
7
4
5
8
9
7
4
5
7
8
9
7
4
5
8
9
7
4
57
8
9
7
4
5
8
9
7
4
57
8
9
7
4
5
8
9
7
4
5
6
8
2
20
7
6
8
9
3
20
7
6
8
9
4
3
20
7
6
8
9
3
20
7
6
8
9
7
8
9
7
4
5
3
20
7
6
8
9
3
20
7
6
8
9
4
3
20
7
6
8
9
3
20
7
6
8
9
7
8
9
7
4
5
8
9
7
4
5
7
8
9
7
4
5
8
9
7
4
57
8
9
7
4
5
8
9
7
4
57
8
9
7
4
5
8
9
7
4
5
6
8
2
20
7
6
8
9
3
20
7
6
8
9
4
3
20
7
6
8
9
3
20
7
6
8
9
7
8
9
7
4
5
3
20
7
6
8
9
3
20
7
6
8
9
4
3
20
7
6
8
9
3
20
7
6
8
9
7
8
9
7
4
5
8
9
7
4
5
7
8
9
7
4
5
8
9
7
4
57
8
9
7
4
5
8
9
7
4
57
8
9
7
4
5
8
9
7
4
5
6
8
2
20
7
6
8
9
3
20
7
6
8
9
4
3
20
7
6
8
9
3
20
7
6
8
9
7
8
9
7
4
5
3
20
7
6
8
9
3
20
7
6
8
9
4
3
20
7
6
8
9
3
20
7
6
8
9
7
8
9
7
4
5
8
9
7
4
5
7
8
9
7
4
5
8
9
7
4
57
8
9
7
4
5
8
9
7
4
57
8
9
7
4
5
8
9
7
4
5
6
8
2
20
7
6
8
9
3
20
7
6
8
9
4
3
20
7
6
8
9
3
20
7
6
8
9
7
8
9
7
4
5
3
20
7
6
8
9
3
20
7
6
8
9
4
3
20
7
6
8
9
3
20
7
6
8
9
7
8
9
7
4
5
8
9
7
4
5
7
8
9
7
4
5
8
9
7
4
57
8
9
7
4
5
8
9
7
4
57
8
9
7
4
5
8
9
7
4
5
6
8
2
20
7
6
8
9
3
20
7
6
8
9
4
3
20
7
6
8
9
3
20
7
6
8
9
7
8
9
7
4
5
3
20
7
6
8
9
3
20
7
6
8
9
4
3
20
7
6
8
9
3
20
7
6
8
9
7
8
9
7
4
5
8
9
7
4
5
7
8
9
7
4
5
8
9
7
4
57
8
9
7
4
5
8
9
7
4
57
8
9
7
4
5
8
9
7
4
5
6
8
2
20
7
6
8
9
3
20
7
6
8
9
4
3
20
7
6
8
9
3
20
7
6
8
9
7
8
9
7
4
5
3
20
7
6
8
9
3
20
7
6
8
9
4
3
20
7
6
8
9
3
20
7
6
8
9
7
8
9
7
4
5
8
9
7
4
5
7
8
9
7
4
5
8
9
7
4
57
8
9
7
4
5
8
9
7
4
57
8
9
7
4
5
8
9
7
4
5
6
8
2
20
7
6
8
9
3
20
7
6
8
9
4
3
20
7
6
8
9
3
20
7
6
8
9
7
8
9
7
4
5
3
20
7
6
8
9
3
20
7
6
8
9
4
3
20
7
6
8
9
3
20
7
6
8
9
7
8
9
7
4
5
8
9
7
4
5
7
8
9
7
4
5
8
9
7
4
57
8
9
7
4
5
8
9
7
4
57
8
9
7
4
5
8
9
7
4
5
6
8
2
20
7
6
8
9
3
20
7
6
8
9
4
3
20
7
6
8
9
3
20
7
6
8
9
7
8
9
7
4
5
3
20
7
6
8
9
3
20
7
6
8
9
4
3
20
7
6
8
9
3
20
7
6
8
9
7
8
9
7
4
5
8
9
7
4
5
7
8
9
7
4
5
8
9
7
4
57
8
9
7
4
5
8
9
7
4
57
8
9
7
4
5
8
9
7
4
5
6
8
2
20
7
6
8
9
3
20
7
6
8
9
4
3
20
7
6
8
9
3
20
7
6
8
9
7
8
9
7
4
5
3
20
7
6
8
9
3
20
7
6
8
9
4
3
20
7
6
8
9
3
20
7
6
8
9
7
8
9
7
4
5
8
9
7
4
5
7
8
9
7
4
5
8
9
7
4
57
8
9
7
4
5
8
9
7
4
57
8
9
7
4
5
8
9
7
4
5
6
8
2
20
7
6
8
9
3
20
7
6
8
9
4
3
20
7
6
8
9
3
20
7
6
8
9
7
8
9
7
4
5
3
20
7
6
8
9
3
20
7
6
8
9
4
3
20
7
6
8
9
3
20
7
6
8
9
7
8
9
7
4
5
8
9
7
4
5
7
8
9
7
4
5
8
9
7
4
57
8
9
7
4
5
8
9
7
4
57
8
9
7
4
5
8
9
7
4
5
6
8
2
20
7
6
8
9
3
20
7
6
8
9
4
3
20
7
6
8
9
3
20
7
6
8
9
7
8
9
7
4
5
3
20
7
6
8
9
3
20
7
6
8
9
4
3
20
7
6
8
9
3
20
7
6
8
9
7
8
9
7
4
5
8
9
7
4
5
7
8
9
7
4
5
8
9
7
4
57
8
9
7
4
5
8
9
7
4
57
8
9
7
4
5
8
9
7
4
5
6
8
2
20
7
6
8
9
3
20
7
6
8
9
4
3
20
7
6
8
9
3
20
7
6
8
9
7
8
9
7
4
5
3
20
7
6
8
9
3
20
7
6
8
9
4
3
20
7
6
8
9
3
20
7
6
8
9
7
8
9
7
4
5
8
9
7
4
5
7
8
9
7
4
5
8
9
7
4
57
8
9
7
4
5
8
9
7
4
57
8
9
7
4
5
8
9
7
4
5
6
8
2
20
7
6
8
9
3
20
7
6
8
9
4
3
20
7
6
8
9
3
20
7
6
8
9
7
8
9
7
4
5
3
20
7
6
8
9
3
20
7
6
8
9
4
3
20
7
6
8
9
3
20
7
6
8
9
7
8
9
7
4
5
8
9
7
4
5
7
8
9
7
4
5
8
9
7
4
57
8
9
7
4
5
8
9
7
4
57
8
9
7
4
5
8
9
7
4
5
6
8
2
20
7
6
8
9
3
20
7
6
8
9
4
3
20
7
6
8
9
3
20
7
6
8
9
7
8
9
7
4
5
3
20
7
6
8
9
3
20
7
6
8
9
4
3
20
7
6
8
9
3
20
7
6
8
9
7
8
9
7
4
5
8
9
7
4
5
7
8
9
7
4
5
8
9
7
4
57
8
9
7
4
5
8
9
7
4
57
8
9
7
4
5
8
9
7
4
5
6
8
2
20
7
6
8
9
3
20
7
6
8
9
4
3
20
7
6
8
9
3
20
7
6
8
9
7
8
9
7
4
5
3
20
7
6
8
9
3
20
7
6
8
9
4
3
20
7
6
8
9
3
20
7
6
8
9
7
8
9
7
4
5
8
9
7
4
5
7
8
9
7
4
5
8
9
7
4
57
8
9
7
4
5
8
9
7
4
57
8
9
7
4
5
8
9
7
4
5
6
8
2
20
7
6
8
9
3
20
7
6
8
9
4
3
20
7
6
8
9
3
20
7
6
8
9
7
8
9
7
4
5
3
20
7
6
8
9
3
20
7
6
8
9
4
3
20
7
6
8
9
3
20
7
6
8
9
7
8
9
7
4
5
8
9
7
4
5
7
8
9
7
4
5
8
9
7
4
57
8
9
7
4
5
8
9
7
4
57
8
9
7
4
5
8
9
7
4
5
6
8
2
20
7
6
8
9
3
20
7
6
8
9
4
3
20
7
6
8
9
3
20
7
6
8
9
7
8
9
7
4
5
3
20
7
6
8
9
3
20
7
6
8
9
4
3
20
7
6
8
9
3
20
7
6
8
9
7
8
9
7
4
5
8
9
7
4
5
7
8
9
7
4
5
8
9
7
4
57
8
9
7
4
5
8
9
7
4
57
8
9
7
4
5
8
9
7
4
5
6
8
2
20
7
6
8
9
3
20
7
6
8
9
4
3
20
7
6
8
9
3
20
7
6
8
9
7
8
9
7
4
5
3
20
7
6
8
9
3
20
7
6
8
9
4
3
20
7
6
8
9
3
20
7
6
8
9
7
8
9
7
4
5
8
9
7
4
5
7
8
9
7
4
5
8
9
7
4
57
8
9
7
4
5
8
9
7
4
57
8
9
7
4
5
8
9
7
4
5
6
8
2
20
7
6
8
9
3
20
7
6
8
9
4
3
20
7
6
8
9
3
20
7
6
8
9
7
8
9
7
4
5
3
20
7
6
8
9
3
20
7
6
8
9
4
3
20
7
6
8
9
3
20
7
6
8
9
7
8
9
7
4
5
8
9
7
4
5
7
8
9
7
4
5
8
9
7
4
57
8
9
7
4
5
8
9
7
4
57
8
9
7
4
5
8
9
7
4
5
6
8
2
20
7
6
8
9
3
20
7
6
8
9
4
3
20
7
6
8
9
3
20
7
6
8
9
7
8
9
7
4
5
3
20
7
6
8
9
3
20
7
6
8
9
4
3
20
7
6
8
9
3
20
7
6
8
9
7
8
9
7
4
5
8
9
7
4
5
7
8
9
7
4
5
8
9
7
4
57
8
9
7
4
5
8
9
7
4
57
8
9
7
4
5
8
9
7
4
5
6
8
2
20
7
6
8
9
3
20
7
6
8
9
4
3
20
7
6
8
9
3
20
7
6
8
9
7
8
9
7
4
5
3
20
7
6
8
9
3
20
7
6
8
9
4
3
20
7
6
8
9
3
20
7
6
8
9
7
8
9
7
4
5
8
9
7
4
5
7
8
9
7
4
5
8
9
7
4
57
8
9
7
4
5
8
9
7
4
57
8
9
7
4
5
8
9
7
4
5
6
8
2
20
7
6
8
9
3
20
7
6
8
9
4
3
20
7
6
8
9
3
20
7
6
8
9
7
8
9
7
4
5
3
20
7
6
8
9
3
20
7
6
8
9
4
3
20
7
6
8
9
3
20
7
6
8
9
7
8
9
7
4
5
8
9
7
4
5
7
8
9
7
4
5
8
9
7
4
57
8
9
7
4
5
8
9
7
4
57
8
9
7
4
5
8
9
7
4
5
6
8
2
20
7
6
8
9
3
20
7
6
8
9
4
3
20
7
6
8
9
3
20
7
6
8
9
7
8
9
7
4
5
3
20
7
6
8
9
3
20
7
6
8
9
4
3
20
7
6
8
9
3
20
7
6
8
9
7
8
9
7
4
5
8
9
7
4
5
7
8
9
7
4
5
8
9
7
4
57
8
9
7
4
5
8
9
7
4
57
8
9
7
4
5
8
9
7
4
5
6
8
2
20
7
6
8
9
3
20
7
6
8
9
4
3
20
7
6
8
9
3
20
7
6
8
9
7
8
9
7
4
5
3
20
7
6
8
9
3
20
7
6
8
9
4
3
20
7
6
8
9
3
20
7
6
8
9
7
8
9
7
4
5
8
9
7
4
5
7
8
9
7
4
5
8
9
7
4
57
8
9
7
4
5
8
9
7
4
57
8
9
7
4
5
8
9
7
4
5
6
8
2
20
7
6
8
9
3
20
7
6
8
9
4
3
20
7
6
8
9
3
20
7
6
8
9
7
8
9
7
4
5
3
20
7
6
8
9
3
20
7
6
8
9
4
3
20
7
6
8
9
3
20
7
6
8
9
7
8
9
7
4
5
8
9
7
4
5
7
8
9
7
4
5
8
9
7
4
57
8
9
7
4
5
8
9
7
4
57
8
9
7
4
5
8
9
7
4
5
6
8
2
20
7
6
8
9
3
20
7
6
8
9
4
3
20
7
6
8
9
3
20
7
6
8
9
7
8
9
7
4
5
3
20
7
6
8
9
3
20
7
6
8
9
4
3
20
7
6
8
9
3
20
7
6
8
9
7
8
9
7
4
5
8
9
7
4
5
7
8
9
7
4
5
8
9
7
4
57
8
9
7
4
5
8
9
7
4
57
8
9
7
4
5
8
9
7
4
5
6
8
2
3
20
7
6
8
9
7
8
9
7
4
5
8
9
7
4
5
7
8
9
7
4
5
8
9
7
4
57
8
9
7
4
5
8
9
7
4
57
8
9
7
4
5
8
9
7
4
5
6
8
2
20
7
6
8
9
3
20
7
6
8
9
4
3
20
7
6
8
9
3
20
7
6
8
9
7
8
9
7
4
5
3
20
7
6
8
9
3
20
7
6
8
9
4
3
20
7
6
8
9
3
20
7
6
8
9
7
8
9
7
4
5
8
9
7
4
5
7
8
9
7
4
5
8
9
7
4
57
8
9
7
4
5
8
9
7
4
57
8
9
7
4
5
8
9
7
4
5
6
8
2